p edge 40 232
e 1 3
e 1 9
e 1 11
e 1 12
e 1 16
e 1 18
e 1 26
e 1 28
e 1 33
e 1 34
e 1 35
e 1 38
e 2 15
e 2 16
e 2 20
e 2 25
e 2 28
e 2 30
e 2 37
e 2 40
e 3 9
e 3 10
e 3 17
e 3 19
e 3 21
e 3 26
e 3 29
e 3 30
e 3 32
e 3 33
e 4 5
e 4 7
e 4 13
e 4 14
e 4 20
e 4 26
e 4 29
e 4 35
e 4 38
e 4 39
e 4 40
e 5 6
e 5 7
e 5 10
e 5 12
e 5 13
e 5 15
e 5 26
e 5 29
e 5 31
e 5 35
e 5 38
e 5 39
e 5 40
e 6 9
e 6 12
e 6 13
e 6 19
e 6 21
e 6 23
e 6 26
e 6 28
e 6 33
e 6 34
e 6 35
e 7 11
e 7 12
e 7 15
e 7 18
e 7 21
e 7 23
e 7 26
e 7 31
e 7 37
e 8 9
e 8 10
e 8 11
e 8 21
e 8 23
e 8 24
e 8 26
e 8 27
e 8 28
e 8 30
e 8 39
e 9 11
e 9 14
e 9 16
e 9 17
e 9 20
e 9 21
e 9 23
e 9 25
e 9 31
e 9 37
e 10 11
e 10 12
e 10 21
e 10 26
e 10 29
e 10 30
e 10 32
e 10 35
e 10 36
e 10 39
e 11 20
e 11 22
e 11 23
e 11 28
e 11 29
e 11 31
e 11 34
e 11 36
e 11 38
e 11 39
e 12 14
e 12 16
e 12 20
e 12 21
e 12 25
e 12 28
e 12 31
e 12 32
e 12 38
e 12 39
e 13 14
e 13 15
e 13 17
e 13 22
e 13 33
e 13 40
e 14 15
e 14 17
e 14 19
e 14 21
e 14 22
e 14 24
e 14 28
e 14 31
e 14 38
e 14 39
e 14 40
e 15 16
e 15 18
e 15 20
e 15 30
e 15 31
e 15 33
e 15 35
e 16 19
e 16 22
e 16 30
e 16 31
e 16 37
e 17 18
e 17 22
e 17 23
e 17 31
e 18 19
e 18 21
e 18 22
e 18 25
e 18 38
e 18 40
e 19 26
e 19 28
e 19 30
e 19 31
e 19 32
e 19 33
e 19 36
e 19 38
e 20 21
e 20 22
e 20 37
e 21 24
e 21 25
e 21 27
e 21 34
e 21 35
e 21 36
e 21 38
e 21 40
e 22 23
e 22 24
e 22 30
e 22 31
e 22 33
e 22 35
e 22 38
e 23 25
e 24 33
e 24 35
e 24 36
e 24 37
e 24 39
e 24 40
e 25 30
e 25 31
e 25 33
e 25 37
e 25 40
e 26 30
e 27 31
e 27 32
e 27 36
e 27 40
e 28 33
e 28 38
e 28 39
e 28 40
e 29 30
e 29 34
e 29 37
e 29 38
e 29 39
e 30 32
e 30 38
e 30 39
e 31 34
e 31 35
e 31 37
e 32 35
e 33 34
e 33 36
e 33 37
e 33 40
e 34 38
e 35 36
e 36 37
e 36 38
e 39 40